c Created with the Wolfram Language : www.wolfram.com
c 
p edge 80 313
e 1 2
e 3 4
e 4 6
e 4 7
e 6 8
e 7 12
e 10 13
e 13 15
e 4 17
e 10 17
e 15 17
e 2 18
e 13 18
e 10 19
e 19 20
e 5 21
e 18 21
e 20 21
e 4 22
e 11 22
e 14 23
e 20 23
e 5 24
e 18 24
e 19 24
e 9 25
e 11 25
e 24 25
e 2 26
e 17 26
e 4 27
e 9 27
e 20 27
e 5 28
e 13 28
e 14 28
e 26 28
e 16 29
e 28 29
e 8 30
e 12 30
e 13 30
e 17 30
e 18 30
e 15 31
e 28 31
e 3 32
e 10 32
e 12 32
e 14 32
e 16 32
e 19 32
e 22 32
e 24 32
e 25 32
e 23 33
e 22 34
e 4 35
e 8 35
e 22 35
e 32 35
e 4 36
e 9 36
e 35 36
e 15 37
e 23 37
e 26 37
e 33 37
e 16 38
e 17 38
e 21 38
e 36 38
e 16 39
e 34 39
e 36 39
e 1 40
e 3 40
e 8 40
e 9 40
e 19 40
e 38 40
e 39 40
e 5 41
e 8 41
e 10 41
e 27 41
e 33 41
e 36 42
e 9 43
e 13 43
e 20 43
e 21 43
e 41 43
e 13 44
e 27 44
e 30 44
e 32 44
e 36 44
e 9 45
e 10 45
e 18 45
e 24 45
e 25 45
e 26 45
e 44 45
e 6 46
e 8 47
e 15 47
e 17 47
e 33 47
e 13 48
e 15 48
e 33 48
e 47 48
e 6 49
e 9 49
e 28 49
e 34 49
e 45 49
e 8 50
e 19 50
e 26 50
e 18 51
e 33 51
e 46 51
e 13 52
e 29 52
e 35 52
e 6 53
e 14 53
e 15 53
e 29 53
e 37 53
e 39 53
e 44 53
e 46 53
e 49 53
e 51 53
e 52 53
e 8 54
e 26 54
e 27 54
e 29 54
e 31 54
e 38 54
e 46 54
e 53 54
e 6 55
e 7 55
e 16 55
e 21 55
e 25 55
e 31 55
e 33 55
e 35 55
e 46 55
e 10 56
e 26 56
e 43 56
e 49 56
e 55 56
e 10 57
e 11 57
e 20 57
e 36 57
e 51 57
e 56 57
e 1 58
e 15 58
e 34 58
e 44 58
e 3 59
e 23 59
e 24 59
e 35 59
e 44 59
e 10 60
e 21 60
e 30 60
e 38 60
e 40 60
e 58 60
e 12 61
e 16 61
e 25 61
e 29 61
e 43 61
e 45 61
e 53 61
e 18 62
e 35 62
e 37 62
e 38 62
e 47 62
e 56 62
e 57 62
e 60 62
e 3 63
e 17 63
e 22 63
e 26 63
e 18 64
e 22 64
e 43 64
e 56 64
e 57 64
e 59 64
e 60 64
e 22 65
e 26 65
e 30 65
e 32 65
e 50 65
e 57 65
e 64 65
e 5 66
e 7 66
e 20 66
e 30 66
e 33 66
e 35 66
e 60 66
e 15 67
e 18 67
e 40 67
e 52 67
e 5 68
e 16 68
e 19 68
e 26 68
e 33 68
e 35 68
e 41 68
e 52 68
e 61 68
e 12 69
e 17 69
e 19 69
e 35 69
e 48 69
e 51 69
e 53 69
e 58 69
e 65 69
e 66 69
e 33 70
e 53 70
e 4 71
e 14 71
e 22 71
e 23 71
e 51 71
e 3 72
e 21 72
e 50 72
e 60 72
e 71 72
e 11 73
e 13 73
e 19 73
e 21 73
e 27 73
e 38 73
e 43 73
e 45 73
e 47 73
e 48 73
e 64 73
e 65 73
e 48 74
e 50 74
e 52 74
e 40 75
e 42 75
e 48 75
e 69 75
e 74 75
e 5 76
e 20 76
e 28 76
e 33 76
e 39 76
e 46 76
e 6 77
e 7 77
e 14 77
e 26 77
e 48 77
e 50 77
e 64 77
e 66 77
e 7 78
e 10 78
e 14 78
e 29 78
e 67 78
e 1 79
e 8 79
e 25 79
e 32 79
e 47 79
e 52 79
e 66 79
e 75 79
e 6 80
e 7 80
e 21 80
e 34 80
e 39 80
e 40 80
e 62 80
e 66 80
e 78 80
